1760122
49,27,43,13,9,17,56,32,51,21,30,20,2,60,23,18,48,22,24,29,40,33,45,42,6,37,66,63,10,65,25,54,5,28,59,4,39,55,31,41,11,0,53,12,46,3,19,64,44,26,16,8,57,7,14,35,58,15,62,47,1,67,34,50,38,61,36,52,49